c Reduced graph for R100_1g_1 generated by Cyril Grelier
p edge 99 506
v 1 5
v 2 5
v 3 5
v 4 5
v 5 5
v 6 5
v 7 5
v 8 5
v 9 5
v 10 5
v 11 5
v 12 5
v 13 5
v 14 5
v 15 5
v 16 4
v 17 4
v 18 4
v 19 4
v 20 4
v 21 4
v 22 4
v 23 4
v 24 4
v 25 4
v 26 4
v 27 4
v 28 4
v 29 4
v 30 4
v 31 4
v 32 4
v 33 4
v 34 4
v 35 4
v 36 4
v 37 4
v 38 4
v 39 4
v 40 4
v 41 4
v 42 4
v 43 3
v 44 3
v 45 3
v 46 3
v 47 3
v 48 3
v 49 3
v 50 3
v 51 3
v 52 3
v 53 3
v 54 3
v 55 3
v 56 3
v 57 3
v 58 3
v 59 3
v 60 3
v 61 3
v 62 3
v 63 3
v 64 3
v 65 3
v 66 2
v 67 2
v 68 2
v 69 2
v 70 2
v 71 2
v 72 2
v 73 2
v 74 2
v 75 2
v 76 2
v 77 2
v 78 2
v 79 2
v 80 1
v 81 1
v 82 1
v 83 1
v 84 1
v 85 1
v 86 1
v 87 1
v 88 1
v 89 1
v 90 1
v 91 1
v 92 1
v 93 1
v 94 1
v 95 1
v 96 1
v 97 1
v 98 1
v 99 1
e 1 6
e 1 10
e 1 16
e 1 24
e 1 29
e 1 31
e 1 42
e 1 57
e 1 58
e 1 59
e 1 71
e 1 75
e 1 81
e 1 95
e 1 96
e 2 18
e 2 23
e 2 27
e 2 29
e 2 31
e 2 39
e 2 45
e 2 53
e 2 70
e 2 71
e 2 74
e 2 84
e 2 88
e 2 92
e 2 96
e 3 8
e 3 9
e 3 15
e 3 16
e 3 28
e 3 35
e 3 50
e 3 72
e 3 73
e 3 80
e 3 87
e 3 89
e 3 92
e 3 94
e 3 98
e 4 6
e 4 10
e 4 17
e 4 25
e 4 26
e 4 37
e 4 43
e 4 48
e 4 60
e 4 73
e 4 76
e 4 81
e 4 86
e 4 92
e 5 11
e 5 13
e 5 18
e 5 20
e 5 30
e 5 31
e 5 44
e 5 48
e 5 53
e 5 67
e 5 73
e 5 76
e 5 78
e 5 84
e 6 12
e 6 23
e 6 47
e 6 53
e 6 62
e 6 69
e 6 77
e 6 78
e 6 86
e 6 92
e 7 14
e 7 17
e 7 18
e 7 37
e 7 52
e 7 53
e 7 66
e 7 67
e 7 71
e 7 82
e 7 98
e 8 16
e 8 24
e 8 25
e 8 40
e 8 48
e 8 49
e 8 50
e 8 51
e 8 60
e 9 20
e 9 43
e 9 54
e 9 55
e 9 65
e 9 68
e 9 69
e 9 87
e 9 88
e 10 21
e 10 26
e 10 35
e 10 51
e 10 73
e 10 80
e 10 86
e 11 26
e 11 33
e 11 48
e 11 61
e 11 67
e 11 95
e 11 97
e 12 18
e 12 19
e 12 26
e 12 47
e 12 55
e 12 85
e 12 89
e 13 17
e 13 28
e 13 58
e 13 74
e 13 80
e 13 90
e 13 94
e 14 30
e 14 31
e 14 52
e 14 66
e 14 68
e 14 74
e 15 16
e 15 26
e 15 42
e 15 43
e 15 65
e 15 96
e 16 17
e 16 18
e 16 19
e 16 29
e 16 48
e 16 51
e 16 59
e 16 63
e 16 77
e 16 80
e 16 84
e 16 85
e 16 89
e 16 94
e 17 19
e 17 20
e 17 35
e 17 43
e 17 50
e 17 55
e 17 56
e 17 58
e 17 66
e 17 84
e 17 86
e 17 88
e 17 90
e 18 28
e 18 46
e 18 48
e 18 57
e 18 61
e 18 67
e 18 70
e 18 78
e 18 82
e 18 89
e 18 96
e 19 20
e 19 21
e 19 26
e 19 28
e 19 30
e 19 50
e 19 52
e 19 56
e 19 66
e 19 74
e 19 93
e 20 32
e 20 37
e 20 45
e 20 58
e 20 59
e 20 80
e 20 84
e 20 85
e 20 91
e 21 23
e 21 25
e 21 36
e 21 47
e 21 60
e 21 63
e 21 73
e 21 82
e 21 84
e 21 98
e 22 30
e 22 33
e 22 38
e 22 47
e 22 49
e 22 54
e 22 61
e 22 66
e 22 82
e 22 90
e 22 94
e 22 99
e 23 34
e 23 41
e 23 47
e 23 52
e 23 55
e 23 68
e 23 85
e 23 97
e 24 25
e 24 35
e 24 38
e 24 46
e 24 65
e 24 73
e 24 82
e 24 84
e 24 99
e 25 28
e 25 44
e 25 47
e 25 51
e 25 83
e 25 88
e 25 96
e 26 27
e 26 35
e 26 45
e 26 74
e 26 81
e 27 29
e 27 40
e 27 46
e 27 66
e 27 73
e 27 80
e 27 87
e 27 89
e 28 50
e 28 72
e 28 90
e 28 93
e 28 94
e 29 36
e 29 43
e 29 44
e 29 66
e 29 72
e 29 82
e 30 57
e 30 63
e 30 68
e 30 70
e 30 85
e 30 86
e 31 34
e 31 58
e 31 70
e 31 87
e 31 90
e 32 43
e 32 53
e 32 55
e 32 60
e 32 71
e 32 81
e 32 86
e 32 96
e 33 36
e 33 44
e 33 74
e 33 76
e 33 85
e 33 87
e 33 88
e 34 44
e 34 45
e 34 47
e 34 61
e 34 78
e 34 83
e 34 98
e 35 43
e 35 46
e 35 87
e 36 42
e 36 71
e 36 81
e 36 82
e 36 84
e 37 66
e 37 80
e 37 81
e 37 88
e 38 39
e 38 43
e 38 67
e 38 68
e 38 91
e 39 69
e 39 81
e 39 94
e 39 99
e 40 45
e 40 46
e 40 57
e 40 83
e 41 50
e 41 58
e 41 66
e 41 67
e 41 71
e 42 49
e 42 80
e 42 88
e 43 50
e 43 51
e 43 59
e 43 73
e 43 75
e 43 77
e 43 81
e 43 85
e 43 87
e 43 88
e 44 46
e 44 62
e 44 67
e 44 70
e 44 75
e 44 80
e 44 92
e 44 96
e 45 49
e 45 52
e 45 53
e 45 64
e 45 68
e 45 76
e 45 85
e 46 70
e 46 74
e 46 81
e 46 82
e 46 90
e 47 55
e 47 69
e 47 72
e 47 91
e 48 67
e 48 77
e 48 83
e 48 86
e 48 87
e 49 56
e 49 69
e 49 80
e 49 81
e 49 82
e 49 91
e 49 97
e 50 62
e 50 81
e 50 89
e 51 66
e 51 71
e 51 82
e 51 89
e 51 97
e 52 53
e 52 72
e 52 77
e 52 86
e 52 88
e 53 55
e 53 68
e 53 72
e 54 68
e 54 69
e 54 70
e 54 81
e 54 88
e 54 95
e 54 98
e 55 67
e 55 90
e 56 63
e 56 70
e 56 75
e 56 80
e 56 83
e 56 85
e 57 61
e 57 67
e 57 68
e 57 86
e 57 99
e 58 92
e 58 93
e 59 60
e 59 89
e 59 97
e 59 98
e 60 79
e 60 95
e 61 75
e 62 63
e 62 87
e 62 94
e 64 68
e 64 72
e 64 80
e 64 87
e 65 89
e 66 67
e 66 69
e 66 70
e 66 76
e 66 80
e 66 84
e 66 90
e 66 93
e 66 95
e 66 99
e 67 68
e 67 91
e 67 92
e 67 99
e 68 93
e 68 95
e 69 72
e 69 80
e 69 85
e 69 91
e 69 93
e 70 90
e 70 92
e 71 76
e 71 80
e 71 82
e 72 80
e 72 84
e 73 74
e 73 75
e 74 82
e 75 76
e 75 90
e 76 97
e 77 96
e 77 97
e 78 88
e 78 90
e 78 93
e 79 82
e 79 91
e 81 83
e 81 84
e 81 93
e 81 95
e 82 86
e 82 87
e 83 84
e 83 86
e 83 87
e 83 92
e 83 93
e 83 95
e 83 97
e 84 95
e 85 89
e 85 91
e 86 88
e 89 96
e 91 94
e 94 98
